CMPL model generation - running

CMPL version: 1.11.0
Authors: Thomas Schleiff, Mike Steglich
Distributed under the GPLv3 

create model instance ...
write model instance ...
CMPL model generation - finished

Solver - running


Welcome to IBM(R) ILOG(R) CPLEX(R) Interactive Optimizer 12.7.1.0
  with Simplex, Mixed Integer & Barrier Optimizers
5725-A06 5725-A29 5724-Y48 5724-Y49 5724-Y54 5724-Y55 5655-Y21
Copyright IBM Corp. 1988, 2017.  All Rights Reserved.

Type 'help' for a list of available commands.
Type 'help' followed by a command name for more
information on commands.

CPLEX> Specified objective sense: MINIMIZE
Selected objective  name:  line[1]
Selected RHS        name:  RHS
Selected bound      name:  BOUND
Problem '/tmp/cmpl.T23860.mps' read.
Read time = 0.06 sec. (8.17 ticks)
CPLEX> CPXPARAM_Read_APIEncoding                        "UTF-8"
Tried aggregator 3 times.
MIP Presolve eliminated 19274 rows and 30763 columns.
MIP Presolve modified 340 coefficients.
Aggregator did 606 substitutions.
Reduced MIP has 2475 rows, 3224 columns, and 9420 nonzeros.
Reduced MIP has 3056 binaries, 0 generals, 0 SOSs, and 0 indicators.
Presolve time = 0.06 sec. (41.74 ticks)
Found incumbent of value 402.729980 after 0.10 sec. (60.05 ticks)
Probing fixed 6 vars, tightened 0 bounds.
Probing time = 0.02 sec. (4.15 ticks)
Tried aggregator 1 time.
MIP Presolve eliminated 0 rows and 6 columns.
MIP Presolve modified 29 coefficients.
Reduced MIP has 2475 rows, 3218 columns, and 9408 nonzeros.
Reduced MIP has 3218 binaries, 0 generals, 0 SOSs, and 0 indicators.
Presolve time = 0.01 sec. (8.02 ticks)
Probing time = 0.01 sec. (2.67 ticks)
Clique table members: 5871.
MIP emphasis: balance optimality and feasibility.
MIP search method: dynamic search.
Parallel mode: none, using 1 thread.
Root relaxation solution time = 0.00 sec. (4.35 ticks)

        Nodes                                         Cuts/
   Node  Left     Objective  IInf  Best Integer    Best Bound    ItCnt     Gap

*     0+    0                          402.7300      -42.2882           110.50%
      0     0       83.6787    16      402.7300       83.6787       89   79.22%
*     0+    0                          105.7628       83.6787            20.88%
*     0+    0                           84.1359       83.6787             0.54%
      0     0       84.0943     1       84.1359      Cuts: 15       95    0.05%
*     0+    0                           84.1229       84.0943             0.03%
*     0+    0                           84.1039       84.0943             0.01%
      0     0        cutoff             84.1039       84.0943       96    0.01%
Elapsed time = 0.19 sec. (106.14 ticks, tree = 0.01 MB, solutions = 5)

Cover cuts applied:  10
Gomory fractional cuts applied:  5

Root node processing (before b&c):
  Real time             =    0.19 sec. (108.09 ticks)
Sequential b&c:
  Real time             =    0.00 sec. (0.00 ticks)
                          ------------
Total (root+branch&cut) =    0.19 sec. (108.09 ticks)

Solution pool: 5 solutions saved.

MIP - Integer optimal solution:  Objective =  8.4103900000e+01
Solution time =    0.19 sec.  Iterations = 96  Nodes = 0
Deterministic time = 108.19 ticks  (556.37 ticks/sec)

CPLEX> Incumbent solution written to file '/tmp/cmpl.T23860.gsol'.
CPLEX> 
CMPL: Time used for model generation: 1 seconds
CMPL: Time used for solving the model: 1 seconds


Solution written to ASCII file: results/output_generated_conf_0.3/2017-04-03-4/fair-nonlinear.sol

Solver - finished
